<number of tasks>
100

<cycle time>
1000

<order strength>
0.196


<task times>
1 50
2 366
3 132
4 122
5 332
6 165
7 162
8 50
9 45
10 225
11 87
12 83
13 85
14 77
15 203
16 146
17 281
18 194
19 161
20 217
21 191
22 93
23 118
24 89
25 215
26 239
27 47
28 108
29 265
30 136
31 259
32 236
33 117
34 99
35 22
36 135
37 88
38 89
39 24
40 80
41 161
42 203
43 246
44 132
45 112
46 125
47 131
48 247
49 163
50 82
51 130
52 207
53 195
54 189
55 82
56 169
57 141
58 204
59 253
60 22
61 264
62 239
63 281
64 64
65 105
66 170
67 62
68 55
69 174
70 272
71 130
72 88
73 224
74 50
75 368
76 75
77 36
78 151
79 134
80 265
81 69
82 194
83 281
84 163
85 186
86 118
87 184
88 190
89 68
90 222
91 223
92 56
93 275
94 312
95 115
96 28
97 26
98 258
99 100
100 120

<precedence relations>
1,7
2,8
3,9
3,10
4,12
4,63
4,100
5,11
5,13
7,14
8,16
9,19
10,15
10,17
10,21
10,23
10,24
11,18
11,33
11,40
11,83
12,22
12,25
13,20
13,68
14,26
15,27
16,28
17,29
18,30
19,32
20,31
21,56
22,77
23,33
23,83
24,31
24,33
25,65
26,34
27,37
28,36
29,38
30,39
31,35
31,40
32,38
33,41
33,42
34,43
35,44
36,45
37,46
38,48
39,47
39,85
40,54
41,48
42,49
42,50
43,53
44,54
45,51
46,52
47,79
48,56
50,55
50,56
50,57
50,58
51,60
52,62
53,61
54,63
54,77
55,59
56,65
56,68
57,67
58,64
58,66
58,67
59,69
60,71
61,72
62,73
63,70
64,78
65,75
66,74
66,86
67,76
67,77
67,79
69,80
70,81
71,83
72,83
73,83
74,82
74,88
75,86
75,89
77,85
79,84
79,87
80,90
81,91
82,92
83,93
83,94
85,93
88,95
90,96
91,97
92,98
93,99
94,100

<end>
